c ---- [ banner ] ------------------------------------------------------------
c
c Kissat SAT Solver
c 
c Copyright (c) 2021-2024 Armin Biere University of Freiburg
c Copyright (c) 2019-2021 Armin Biere Johannes Kepler University Linz
c 
c Version 4.0.1 43f02cf3e992cb44653b35e5cb26f93281552ae0
c gcc (Ubuntu 13.2.0-23ubuntu4) 13.2.0 -W -Wall -O3 -DNDEBUG
c Thu Sep 12 12:27:46 CEST 2024 Linux abryzen9 6.8.0-41-generic x86_64
c
c ---- [ parsing ] -----------------------------------------------------------
c
c opened and reading DIMACS file:
c
c   /data/artifact/AMulet2.0_artifact/exp4/cnf_dc2_64/64_64_U_SP_CWT_RC_GenMul_dc2.cnf
c
c parsed 'p cnf 37367 149623' header
c closing input after reading 2936670 bytes (3 MB)
c finished parsing after 0.03 seconds
c
c ---- [ options ] -----------------------------------------------------------
c
c --stable=0                       (different from default '1')
c
c ---- [ solving ] -----------------------------------------------------------
c
c  seconds switched rate     size/glue tier1  binary           remaining
c         MB reductions conflicts size  tier2     irredundant
c          level restarts redundant glue  trail           variables
c
c *  0.03 12 0 0 0  0 0   0   0 0.0 0 0 0 0 0% 34810 114811 37364 100%
c (  0.04 13 0 0 0  0 0   0   0 0.0 0 0 0 0 0% 34810 114811 37364 100%
c .  0.05 13 0 0 0  0 0   0   0 0.0 0 0 0 0 0% 34806 114811 37364 100%
c c  0.12 21 0 0 0  0 0   0   0 0.0 0 0 0 0 0% 43182 99886 33173 89%
c d  0.13 22 0 0 0  0 0   0   0 0.0 0 0 0 0 0% 34800 99886 33173 89%
c =  0.17 22 0 0 0  0 0   0   0 0.0 0 0 0 0 0% 34740 99886 32594 87%
c d  0.18 22 0 0 0  0 0   0   0 0.0 0 0 0 0 0% 33582 99886 32594 87%
c f  0.26 20 0 0 0  0 0   0   0 0.0 0 0 0 0 0% 34772 95728 34547 92%
c e  0.39 28 0 0 0  0 0   0   0 0.0 0 0 0 0 0% 24000 104029 25207 67%
c )  0.39 28 0 0 0  0 0   0   0 0.0 0 0 0 0 0% 24000 104029 25207 67%
c {  0.40 28 0 0 0  0 0   0   0 0.0 0 0 2 6 0% 24000 104029 25207 67%
c -  0.53 30 174 0 1 208 25 1000 727 2.4 11 4 3 8 21% 24089 104021 25207 67%
c -  0.66 30 196 0 2 356 32 2000 1441 2.9 14 5 3 9 21% 24140 104021 25207 67%
c c  0.89 23 195 0 2 501 38 2508 1885 3.1 16 5 3 9 25% 24791 103578 24782 66%
c d  0.90 23 195 0 2 501 38 2508 1867 3.1 16 5 3 9 25% 23941 103578 24782 66%
c u  0.91 23 195 0 2 501 38 2508 1446 3.1 16 5 3 9 25% 22694 103578 24782 66%
c v  0.93 23 195 0 2 501 38 2508 1283 3.1 16 5 3 9 25% 22694 103578 24782 66%
c w  0.94 23 195 0 2 501 38 2508 1283 3.1 16 5 3 9 25% 22694 103578 24782 66%
c x  0.96 26 195 0 2 501 38 2508 1281 3.1 16 5 3 9 25% 22869 103037 24782 66%
c =  1.02 26 195 0 2 501 38 2508 1281 3.1 16 5 3 9 25% 23703 103037 24365 65%
c
c  seconds   switched   rate       size/glue tier1    binary           remaining
c         MB  reductions conflicts       size  tier2      irredundant
c           level restarts    redundant    glue   trail           variables
c
c d  1.03 26 195 0 2 501 38 2508 1280 3.1 16 5 3 9 25% 22866 103037 24365 65%
c t  1.04 26 195 0 2 501 38 2508 1280 3.1 16 5 3 9 25% 22818 103037 24365 65%
c f  1.06 26 195 0 2 501 38 2508 1280 3.1 16 5 3 9 25% 23183 101972 24840 66%
c u  1.12 26 195 0 2 501 38 2508 1196 3.1 16 5 3 9 25% 23187 101972 24840 66%
c v  1.14 26 195 0 2 501 38 2508 1127 3.1 16 5 3 9 25% 23187 101972 24840 66%
c w  1.15 26 195 0 2 501 38 2508 1127 3.1 16 5 3 9 25% 23187 101972 24840 66%
c x  1.17 26 195 0 2 501 38 2508 1127 3.1 16 5 3 9 25% 23190 101557 24840 66%
c =  1.23 26 195 0 2 501 38 2508 1127 3.1 16 5 3 9 25% 23836 101557 24517 66%
c d  1.24 26 195 0 2 501 38 2508 1104 3.1 16 5 3 9 25% 23159 101557 24517 66%
c t  1.25 26 195 0 2 501 38 2508 1104 3.1 16 5 3 9 25% 23090 101557 24517 66%
c f  1.27 26 195 0 2 501 38 2508 1104 3.1 16 5 3 9 25% 23243 101003 24687 66%
c -  1.36 26 236 0 3 556 37 3414 1616 3.2 16 5 3 9 24% 23303 100992 24687 66%
c -  1.67 26 274 0 4 823 37 5146 2764 3.3 17 5 3 9 26% 23381 100986 24687 66%
c -  1.97 26 283 0 5 1010 36 7146 4020 3.1 16 5 3 9 26% 23498 100980 24687 66%
c d  2.07 26 285 0 5 1075 37 7721 4476 3.3 17 5 3 9 26% 23530 100968 24679 66%
c u  2.10 26 285 0 5 1075 37 7721 3395 3.3 17 5 3 9 26% 23540 100968 24679 66%
c v  2.12 26 285 0 5 1075 37 7721 3109 3.3 17 5 3 9 26% 23541 100968 24679 66%
c w  2.14 26 285 0 5 1075 37 7721 3109 3.3 17 5 3 9 26% 23541 100968 24679 66%
c x  2.16 26 285 0 5 1075 37 7721 3109 3.3 17 5 3 9 26% 23541 100474 24679 66%
c =  2.27 26 285 0 5 1075 37 7721 3109 3.3 17 5 3 9 26% 25099 100474 23900 64%
c
c  seconds   switched    rate       size/glue tier1    binary           remaining
c         MB  reductions  conflicts       size  tier2      irredundant
c           level  restarts    redundant    glue   trail           variables
c
c d  2.28 26 285 0 5 1075 37 7721 3068 3.3 17 5 3 9 26% 23495 100474 23899 64%
c t  2.30 26 285 0 5 1075 37 7721 3068 3.3 17 5 3 9 26% 23299 100474 23899 64%
c f  2.34 26 285 0 5 1075 37 7721 3068 3.3 17 5 3 9 26% 23715 98991 24353 65%
c u  2.41 26 285 0 5 1075 37 7721 2848 3.3 17 5 3 9 26% 23719 98991 24353 65%
c v  2.42 26 285 0 5 1075 37 7721 2768 3.3 17 5 3 9 26% 23719 98991 24353 65%
c w  2.45 26 285 0 5 1075 37 7721 2765 3.3 17 5 3 9 26% 23719 98991 24353 65%
c x  2.47 26 285 0 5 1075 37 7721 2765 3.3 17 5 3 9 26% 23737 98171 24353 65%
c =  2.57 26 285 0 5 1075 37 7721 2765 3.3 17 5 3 9 26% 24495 98171 23974 64%
c d  2.58 26 285 0 5 1075 37 7721 2752 3.3 17 5 3 9 26% 23498 98171 23974 64%
c t  2.59 26 285 0 5 1075 37 7721 2752 3.3 17 5 3 9 26% 23426 98171 23974 64%
c f  2.63 26 285 0 5 1075 37 7721 2752 3.3 17 5 3 9 26% 24004 96707 24611 66%
c -  2.95 26 267 0 6 1247 36 9383 3744 3.3 17 5 3 9 27% 24059 96705 24611 66%
c o  3.03 26 261 0 6 1305 35 10006 4293 3.2 17 5 3 9 27% 24092 96699 24611 66%
c -  3.22 26 272 0 7 1421 35 11832 5256 3.2 17 5 3 8 27% 24183 96693 24611 66%
c s  3.29 26 274 0 7 1445 34 12525 5844 3.2 16 5 3 8 27% 24237 89723 24611 66%
c e  3.38 26 274 0 7 1445 34 12525 5844 3.2 16 5 3 8 27% 21054 92177 22165 59%
c 2  3.38 26 274 0 7 1445 34 12525 5844 3.2 16 5 3 8 27% 21051 92177 22165 59%
c s  3.39 26 274 0 7 1445 34 12525 5844 3.2 16 5 3 8 27% 21071 91355 22165 59%
c e  3.40 26 274 0 7 1445 34 12525 5844 3.2 16 5 3 8 27% 20280 91775 21759 58%
c ^  3.40 26 274 0 7 1445 34 12525 5844 3.2 16 5 3 8 27% 20280 91775 21759 58%
c
c  seconds   switched    rate        size/glue tier1    binary          remaining
c         MB  reductions   conflicts       size  tier2      irredundant
c           level  restarts     redundant    glue   trail          variables
c
c -  3.68 26 271 0 8 1626 33 14479 6130 3.2 17 5 3 8 27% 20353 91773 21759 58%
c d  3.86 26 276 0 8 1687 32 15807 7249 3.2 17 5 3 8 27% 20336 91765 21712 58%
c u  3.92 26 276 0 8 1687 32 15807 5848 3.2 17 5 3 8 27% 20351 91765 21712 58%
c v  3.96 26 276 0 8 1687 32 15807 5427 3.2 17 5 3 8 27% 20351 91765 21712 58%
c w  3.98 26 276 0 8 1687 32 15807 5426 3.2 17 5 3 8 27% 20351 91765 21712 58%
c x  4.01 26 276 0 8 1687 32 15807 5425 3.2 17 5 3 8 27% 20408 91277 21712 58%
c =  4.15 26 276 0 8 1687 32 15807 5425 3.2 17 5 3 8 27% 20686 91277 21573 58%
c d  4.17 26 276 0 8 1687 32 15807 5409 3.2 17 5 3 8 27% 20311 91277 21572 58%
c t  4.19 26 276 0 8 1687 32 15807 5409 3.2 17 5 3 8 27% 20251 91277 21572 58%
c f  4.26 26 276 0 8 1687 32 15807 5409 3.2 17 5 3 8 27% 20330 91074 21628 58%
c u  4.33 26 276 0 8 1687 32 15807 4891 3.2 17 5 3 8 27% 20335 91074 21628 58%
c v  4.36 26 276 0 8 1687 32 15807 4772 3.2 17 5 3 8 27% 20335 91074 21628 58%
c w  4.40 26 276 0 8 1687 32 15807 4757 3.2 17 5 3 8 27% 20335 91074 21628 58%
c x  4.44 26 276 0 8 1687 32 15807 4755 3.2 17 5 3 8 27% 20371 90259 21628 58%
c =  4.60 26 276 0 8 1687 32 15807 4755 3.2 17 5 3 8 27% 21155 90259 21236 57%
c d  4.61 26 276 0 8 1687 32 15807 4714 3.2 17 5 3 8 27% 20297 90259 21235 57%
c t  4.63 26 276 0 8 1687 32 15807 4714 3.2 17 5 3 8 27% 20228 90259 21235 57%
c f  4.68 26 276 0 8 1687 32 15807 4714 3.2 17 5 3 8 27% 20201 90158 21263 57%
c -  5.26 28 267 0 9 1948 32 17307 5169 3.3 18 5 2 8 27% 20239 90155 21263 57%
c o  5.83 28 263 0 9 2168 31 20015 7447 3.2 19 6 2 8 27% 20345 90152 21263 57%
c
c  seconds   switched     rate        size/glue tier1    binary          remaining
c         MB   reductions   conflicts       size  tier2      irredundant
c           level   restarts     redundant    glue   trail          variables
c
c -  6.00 28 262 0 10 2229 31 20312 6787 3.4 20 6 2 7 28% 20354 90152 21263 57%
c -  6.80 28 256 0 11 2557 31 23474 8315 3.4 21 6 2 7 28% 20420 90150 21263 57%
c s  7.29 28 251 0 11 2742 31 25030 9654 3.4 22 7 2 7 28% 20474 88589 21263 57%
c e  7.40 28 251 0 11 2742 31 25030 9654 3.4 22 7 2 7 28% 16997 93490 19327 52%
c 2  7.41 28 251 0 11 2742 31 25030 9654 3.4 22 7 2 7 28% 16984 93490 19327 52%
c s  7.42 28 251 0 11 2742 31 25030 9654 3.4 22 7 2 7 28% 17068 92089 19327 52%
c e  7.44 28 251 0 11 2742 31 25030 9654 3.4 22 7 2 7 28% 17005 92176 19292 52%
c ^  7.44 28 251 0 11 2742 31 25030 9654 3.4 22 7 2 7 28% 17005 92176 19292 52%
c -  7.79 28 250 0 12 2949 31 26792 8437 3.5 23 7 2 7 29% 17039 92174 19292 52%
c c  7.85 28 249 0 12 2960 31 26937 8566 3.4 23 7 2 7 29% 17052 92156 19289 52%
c d  7.86 28 249 0 12 2960 31 26937 8562 3.4 23 7 2 7 29% 17023 92156 19275 52%
c u  7.89 28 249 0 12 2960 31 26937 7447 3.4 23 7 2 7 29% 17038 92156 19275 52%
c v  7.93 28 249 0 12 2960 31 26937 6572 3.4 23 7 2 7 29% 17038 92156 19275 52%
c w  7.93 28 249 0 12 2960 31 26937 6570 3.4 23 7 2 7 29% 17038 92156 19275 52%
c x  8.01 28 249 0 12 2960 31 26937 6565 3.4 23 7 2 7 29% 17108 90965 19275 52%
c =  8.21 28 249 0 12 2960 31 26937 6565 3.4 23 7 2 7 29% 18492 90965 18583 50%
c d  8.22 28 249 0 12 2960 31 26937 6427 3.4 23 7 2 7 29% 17051 90965 18583 50%
c t  8.24 28 249 0 12 2960 31 26937 6427 3.4 23 7 2 7 29% 16871 90965 18583 50%
c f  8.31 28 249 0 12 2960 31 26937 6427 3.4 23 7 2 7 29% 17049 90167 18746 50%
c u  8.35 28 249 0 12 2960 31 26937 6095 3.4 23 7 2 7 29% 17052 90167 18746 50%
c
c  seconds   switched     rate        size/glue tier1    binary          remaining
c         MB   reductions   conflicts       size  tier2      irredundant
c           level   restarts     redundant    glue   trail          variables
c
c v  8.37 28 249 0 12 2960 31 26937 5886 3.4 23 7 2 7 29% 17052 90167 18746 50%
c w  8.38 28 249 0 12 2960 31 26937 5885 3.4 23 7 2 7 29% 17052 90167 18746 50%
c x  8.47 28 249 0 12 2960 31 26937 5882 3.4 23 7 2 7 29% 17074 87082 18746 50%
c =  8.70 28 249 0 12 2960 31 26937 5882 3.4 23 7 2 7 29% 19302 87082 17632 47%
c d  8.71 28 249 0 12 2960 31 26937 5763 3.4 23 7 2 7 29% 17005 87082 17632 47%
c t  8.73 28 249 0 12 2960 31 26937 5763 3.4 23 7 2 7 29% 16722 87082 17632 47%
c f  8.76 28 249 0 12 2960 31 26937 5763 3.4 23 7 2 7 29% 16833 86566 17736 47%
c -  9.14 28 248 0 13 3172 30 30256 7719 3.4 23 7 2 7 29% 16896 86564 17736 47%
c -  9.45 28 248 0 14 3327 29 33863 9697 3.3 21 6 2 7 28% 17002 86563 17736 47%
c -  9.90 28 247 0 15 3604 29 37604 11354 3.3 21 6 2 7 29% 17075 86561 17736 47%
c o 10.17 28 242 0 15 3744 28 40588 13996 3.2 21 6 2 7 28% 17136 86561 17736 47%
c d 10.28 28 240 0 15 3810 28 41263 14605 3.2 21 6 2 7 29% 17103 86561 17715 47%
c u 10.33 28 240 0 15 3810 28 41263 12491 3.2 21 6 2 7 29% 17119 86561 17715 47%
c v 10.37 28 240 0 15 3810 28 41263 12131 3.2 21 6 2 7 29% 17119 86561 17715 47%
c w 10.40 28 240 0 15 3810 28 41263 12130 3.2 21 6 2 7 29% 17119 86561 17715 47%
c x 10.44 28 240 0 15 3810 28 41263 12129 3.2 21 6 2 7 29% 17120 81731 17715 47%
c = 10.60 28 240 0 15 3810 28 41263 12129 3.2 21 6 2 7 29% 17810 81723 17370 46%
c d 10.61 28 240 0 15 3810 28 41263 12084 3.2 21 6 2 7 29% 17100 81723 17370 46%
c t 10.63 28 240 0 15 3810 28 41263 12084 3.2 21 6 2 7 29% 17025 81723 17370 46%
c f 10.65 28 240 0 15 3810 28 41263 12084 3.2 21 6 2 7 29% 17003 81620 17390 47%
c
c  seconds   switched     rate         size/glue tier1    binary          remaining
c         MB   reductions   conflicts        size  tier2      irredundant
c           level   restarts      redundant    glue   trail          variables
c
c u 10.69 28 240 0 15 3810 28 41263 11597 3.2 21 6 2 7 29% 17007 81620 17390 47%
c v 10.73 28 240 0 15 3810 28 41263 10514 3.2 21 6 2 7 29% 17007 81620 17390 47%
c w 10.76 28 240 0 15 3810 28 41263 10504 3.2 21 6 2 7 29% 17007 81620 17390 47%
c x 10.80 29 240 0 15 3810 28 41263 10503 3.2 21 6 2 7 29% 17009 79676 17390 47%
c = 10.95 29 240 0 15 3810 28 41263 10503 3.2 21 6 2 7 29% 17121 79676 17334 46%
c d 10.96 29 240 0 15 3810 28 41263 10497 3.2 21 6 2 7 29% 16968 79676 17334 46%
c t 10.98 29 240 0 15 3810 28 41263 10497 3.2 21 6 2 7 29% 16966 79676 17334 46%
c f 10.99 29 240 0 15 3810 28 41263 10497 3.2 21 6 2 7 29% 16969 79664 17337 46%
c - 11.06 29 239 0 16 3855 28 41478 9371 3.2 21 6 2 6 29% 16971 79664 17337 46%
c - 11.35 29 231 0 17 4060 27 45478 11252 3.2 20 6 2 6 28% 17043 79663 17337 46%
c - 11.86 29 227 0 18 4386 26 49601 13170 3.1 20 6 2 6 28% 17111 79661 17337 46%
c s 12.14 29 224 0 18 4559 26 52137 15366 3.1 20 6 2 6 28% 17169 76305 17337 46%
c e 12.22 29 224 0 18 4559 26 52137 15366 3.1 20 6 2 6 28% 15257 79632 16308 44%
c 2 12.22 29 224 0 18 4559 26 52137 15366 3.1 20 6 2 6 28% 15248 79632 16308 44%
c s 12.23 29 224 0 18 4559 26 52137 15366 3.1 20 6 2 6 28% 15308 79176 16308 44%
c e 12.24 29 224 0 18 4559 26 52137 15366 3.1 20 6 2 6 28% 15279 79219 16297 44%
c ^ 12.24 29 224 0 18 4559 26 52137 15366 3.1 20 6 2 6 28% 15279 79219 16297 44%
c - 12.40 29 225 0 19 4647 26 53843 13529 3.1 20 6 2 6 28% 15320 79219 16297 44%
c - 12.78 29 218 0 20 4905 25 58201 15232 3.0 19 6 2 6 28% 15388 79218 16297 44%
c c 12.88 29 217 0 20 4953 25 58889 15836 3.0 19 6 2 6 28% 15427 79114 16269 44%
c
c  seconds   switched     rate         size/glue tier1    binary          remaining
c         MB   reductions   conflicts        size  tier2      irredundant
c           level   restarts      redundant    glue   trail          variables
c
c d 12.88 29 217 0 20 4953 25 58889 15713 3.0 19 6 2 6 28% 15371 79114 16269 44%
c u 12.94 29 217 0 20 4953 25 58889 13423 3.0 19 6 2 6 28% 15380 79114 16269 44%
c v 12.98 29 217 0 20 4953 25 58889 12373 3.0 19 6 2 6 28% 15381 79114 16269 44%
c w 13.00 29 217 0 20 4953 25 58889 12369 3.0 19 6 2 6 28% 15381 79114 16269 44%
c x 13.05 29 217 0 20 4953 25 58889 12361 3.0 19 6 2 6 28% 15416 78714 16269 44%
c = 13.23 29 217 0 20 4953 25 58889 12361 3.0 19 6 2 6 28% 16434 78714 15760 42%
c d 13.23 29 217 0 20 4953 25 58889 11862 3.0 19 6 2 6 28% 15366 78714 15759 42%
c t 13.25 29 217 0 20 4953 25 58889 11862 3.0 19 6 2 6 28% 15173 78714 15759 42%
c f 13.30 29 217 0 20 4953 25 58889 11862 3.0 19 6 2 6 28% 15317 78177 15828 42%
c u 13.35 29 217 0 20 4953 25 58889 10890 3.0 19 6 2 6 28% 15328 78177 15828 42%
c v 13.39 29 217 0 20 4953 25 58889 10262 3.0 19 6 2 6 28% 15329 78177 15828 42%
c w 13.41 29 217 0 20 4953 25 58889 10231 3.0 19 6 2 6 28% 15329 78177 15828 42%
c x 13.46 29 217 0 20 4953 25 58889 10225 3.0 19 6 2 6 28% 15400 75143 15828 42%
c = 13.64 29 217 0 20 4953 25 58889 10225 3.0 19 6 2 6 28% 15710 75143 15673 42%
c d 13.65 29 217 0 20 4953 25 58889 10182 3.0 19 6 2 6 28% 15387 75143 15673 42%
c t 13.67 29 217 0 20 4953 25 58889 10182 3.0 19 6 2 6 28% 15336 75143 15673 42%
c f 13.68 29 217 0 20 4953 25 58889 10182 3.0 19 6 2 6 28% 15364 74998 15690 42%
c - 14.10 29 214 0 21 5283 25 62673 12129 3.0 19 6 2 6 28% 15426 74998 15690 42%
c - 14.31 29 210 0 22 5430 24 67257 14381 2.9 19 6 2 6 27% 15528 74995 15690 42%
c o 14.60 29 205 0 22 5616 23 71083 17594 2.9 18 6 2 6 26% 15622 74994 15690 42%
c
c  seconds   switched     rate         size/glue tier1    binary          remaining
c         MB   reductions   conflicts        size  tier2      irredundant
c           level   restarts      redundant    glue   trail          variables
c
c - 14.70 29 203 0 23 5688 23 71947 16332 2.9 18 6 2 6 26% 15641 74994 15690 42%
c - 15.08 29 199 0 24 5984 22 76742 18117 2.9 18 6 2 6 26% 15731 74993 15690 42%
c c 15.38 29 194 0 24 6167 22 79949 20768 2.9 18 6 2 6 26% 15887 74513 15578 42%
c d 15.39 29 194 0 24 6167 22 79949 20098 2.9 18 6 2 6 26% 15663 74513 15578 42%
c u 15.44 29 194 0 24 6167 22 79949 17677 2.9 18 6 2 6 26% 15664 74513 15578 42%
c v 15.48 29 194 0 24 6167 22 79949 17125 2.9 18 6 2 6 26% 15664 74513 15578 42%
c w 15.51 29 194 0 24 6167 22 79949 17118 2.9 18 6 2 6 26% 15664 74513 15578 42%
c x 15.56 29 194 0 24 6167 22 79949 17108 2.9 18 6 2 6 26% 15790 73405 15578 42%
c = 15.78 29 194 0 24 6167 22 79949 17108 2.9 18 6 2 6 26% 16740 73405 15103 40%
c d 15.79 29 194 0 24 6167 22 79949 16076 2.9 18 6 2 6 26% 15695 73405 15103 40%
c t 15.80 29 194 0 24 6167 22 79949 16076 2.9 18 6 2 6 26% 15580 73405 15103 40%
c f 15.82 29 194 0 24 6167 22 79949 16076 2.9 18 6 2 6 26% 15645 73126 15137 41%
c u 15.91 29 194 0 24 6167 22 79949 14753 2.9 18 6 2 6 26% 15653 73126 15137 41%
c v 15.95 29 194 0 24 6167 22 79949 13642 2.9 18 6 2 6 26% 15654 73126 15137 41%
c w 15.98 29 194 0 24 6167 22 79949 13636 2.9 18 6 2 6 26% 15654 73126 15137 41%
c x 16.02 29 194 0 24 6167 22 79949 13634 2.9 18 6 2 6 26% 15740 72007 15137 41%
c = 16.22 29 194 0 24 6167 22 79949 13634 2.9 18 6 2 6 26% 16168 71781 14895 40%
c d 16.23 29 194 0 24 6167 22 79949 13408 2.9 18 6 2 6 26% 15733 71779 14895 40%
c t 16.24 29 194 0 24 6167 22 79949 13408 2.9 18 6 2 6 26% 15613 71779 14895 40%
c f 16.25 29 194 0 24 6167 22 79949 13408 2.9 18 6 2 6 26% 15627 71718 14902 40%
c
c  seconds   switched     rate         size/glue tier1    binary          remaining
c         MB   reductions   conflicts        size  tier2      irredundant
c           level   restarts      redundant    glue   trail          variables
c
c - 16.48 29 192 0 25 6297 22 81640 13338 2.9 18 6 2 6 26% 15627 71716 14902 40%
c - 17.01 29 189 0 26 6731 21 86641 15982 2.8 18 6 2 6 26% 15708 71712 14902 40%
c i 17.50 29 184 0 26 7091 21 90886 19752 2.8 18 6 2 6 26% 15770 71710 14901 40%
c i 17.60 29 183 0 26 7150 21 91708 20496 2.8 18 6 2 6 26% 15784 71710 14900 40%
c - 17.61 29 183 0 27 7151 21 91740 18378 2.8 18 6 2 6 26% 15780 71710 14900 40%
c i 17.69 29 183 0 27 7220 21 92326 18901 2.8 18 6 2 6 26% 15791 71710 14898 40%
c i 17.96 29 180 0 27 7428 21 94411 20808 2.8 18 6 2 6 26% 15813 71710 14897 40%
c i 18.09 29 178 0 27 7511 21 95547 21848 2.8 18 6 2 6 26% 15844 71710 14896 40%
c s 18.12 29 178 0 27 7536 21 95791 22077 2.8 18 6 2 6 26% 15852 68738 14896 40%
c e 18.22 29 178 0 27 7536 21 95791 22077 2.8 18 6 2 6 26% 11802 79530 12664 34%
c 2 18.22 29 178 0 27 7536 21 95791 22077 2.8 18 6 2 6 26% 11792 79530 12664 34%
c s 18.25 29 178 0 27 7536 21 95791 22077 2.8 18 6 2 6 26% 11823 77908 12664 34%
c e 18.27 29 178 0 27 7536 21 95791 22077 2.8 18 6 2 6 26% 11687 78176 12614 34%
c ^ 18.27 29 178 0 27 7536 21 95791 22077 2.8 18 6 2 6 26% 11687 78176 12614 34%
c i 18.28 29 178 0 27 7545 21 95892 14663 2.8 18 6 2 6 26% 11694 78176 12613 34%
c i 18.38 29 177 0 27 7637 21 96878 15532 2.8 18 6 2 6 26% 11707 78176 12612 34%
c - 18.40 29 177 0 28 7641 21 96937 14063 2.8 18 6 2 5 26% 11709 78160 12612 34%
c i 18.51 29 177 0 28 7765 21 97596 14627 2.8 18 6 2 5 27% 11719 78160 12611 34%
c i 18.76 29 176 0 28 7997 21 99257 16182 2.8 18 6 2 5 27% 11735 78160 12610 34%
c i 18.78 29 176 0 28 8016 21 99416 16313 2.8 18 6 2 5 27% 11740 78160 12609 34%
c
c  seconds   switched     rate         size/glue tier1    binary          remaining
c         MB   reductions   conflicts        size  tier2      irredundant
c           level   restarts      redundant    glue   trail          variables
c
c i 18.84 29 175 0 28 8048 21 99983 16830 2.8 17 6 2 5 27% 11746 78160 12607 34%
c i 18.84 29 175 0 28 8048 21 100166 16962 2.8 17 6 2 5 27% 11755 78160 12605 34%
c i 18.84 29 175 0 28 8048 21 100182 16962 2.8 17 6 2 5 27% 11758 78160 12604 34%
c i 19.07 29 173 0 28 8215 21 102187 18712 2.7 17 6 2 5 27% 11780 78158 12603 34%
c - 19.08 29 173 0 29 8215 21 102230 16681 2.7 17 6 2 5 27% 11755 78158 12603 34%
c i 19.12 29 173 0 29 8253 21 102623 17031 2.7 17 6 2 5 27% 11762 78158 12602 34%
c i 19.14 29 172 0 29 8278 21 102789 17177 2.7 17 6 2 5 27% 11768 78158 12601 34%
c i 19.15 29 172 0 29 8281 21 103028 17337 2.7 17 6 2 5 27% 11775 78158 12600 34%
c i 19.15 29 172 0 29 8290 21 103080 17384 2.7 17 6 2 5 27% 11776 78158 12599 34%
c i 19.15 29 172 0 29 8290 21 103106 17388 2.7 17 6 2 5 27% 11781 78158 12598 34%
c i 19.18 29 170 0 29 8343 21 103999 18148 2.7 17 6 2 5 27% 11795 78158 12593 34%
c i 19.19 29 170 0 29 8344 20 104345 18454 2.7 17 6 2 5 26% 11803 78158 12591 34%
c i 19.19 29 170 0 29 8344 20 104375 18476 2.7 17 6 2 5 26% 11805 78158 12590 34%
c i 19.19 29 169 0 29 8350 20 104556 18627 2.7 17 6 2 5 26% 11809 78158 12587 34%
c i 19.19 29 169 0 29 8350 20 104558 18628 2.7 17 6 2 5 26% 11809 78158 12577 34%
c } 19.19 29 169 0 29 8350 20 104560 18628 2.7 17 6 2 5 26% 11809 78158 12561 34%
c 0 19.19 29 169 0 29 8350 20 104560 18628 2.7 17 6 2 5 26% 11809 78158 12561 34%
c
c ---- [ result ] ------------------------------------------------------------
c
s UNSATISFIABLE
c
c ---- [ profiling ] ---------------------------------------------------------
c
c          12.92   67.32 %  search
c          12.92   67.32 %  focused
c           5.87   30.59 %  simplify
c           5.49   28.59 %  probe
c           2.22   11.57 %  sweep
c           1.78    9.27 %  vivify
c           0.60    3.13 %  eliminate
c           0.58    3.05 %  factor
c           0.38    1.98 %  substitute
c           0.35    1.84 %  congruence
c           0.34    1.79 %  preprocess
c           0.15    0.78 %  reduce
c           0.13    0.67 %  subsume
c           0.12    0.64 %  fastel
c           0.11    0.59 %  transitive
c           0.05    0.29 %  backbone
c           0.03    0.16 %  lucky
c           0.03    0.14 %  parse
c =============================================
c          19.19  100.00 %  total
c
c ---- [ statistics ] --------------------------------------------------------
c
c chronological:                         4600                4 %  conflicts
c conflicts:                           104560             5447.26 per second
c congruent:                             4759               13 %  variables
c decisions:                          2180454               20.85 per conflict
c eliminated:                           17485               47 %  variables
c factored:                              4190               11 %  variables
c fast_eliminated:                       9340               53 %  eliminated
c fast_strengthened:                      426               11 %  per strengthened
c fast_subsumed:                          239                1 %  per subsumed
c iterations:                              25                0 %  variables
c propagations:                     100787024          5250701    per second
c reductions:                              29             3606    interval
c reordered:                                4            26140    interval
c restarts:                              8350               13    interval
c strengthened:                          3886                0 %  checks
c substituted:                          11421               31 %  variables
c subsumed:                             19153                1 %  checks
c switched:                                 0                0    interval
c vivified:                             55616               16 %  checks
c
c ---- [ glue usage ] --------------------------------------------------------
c
c focused glue 2 used 55270 clauses 25.61% accumulated 70.24% tier1
c focused glue 3 used 24448 clauses 11.33% accumulated 81.57%
c focused glue 4 used 11780 clauses  5.46% accumulated 87.03%
c focused glue 5 used  7282 clauses  3.37% accumulated 90.41% tier2
c
c ---- [ resources ] ---------------------------------------------------------
c
c maximum-resident-set-size:         31313920 bytes         30 MB
c process-time:                            19s              19.19 seconds
c
c ---- [ shutting down ] -----------------------------------------------------
c
c exit 20
